0 0 0 0
0 1 0 0
0 2 2 0
0 3 0 0
0 4 0 6
0 5 1 6
0 6 2 8
0 7 0 6
0 8 2 8
0 9 2 13
0 10 1 15
0 11 0 20
0 12 0 8
0 13 0 2
0 14 0 20
0 15 2 8
0 16 0 16
0 17 0 25
0 18 0 27
0 19 2 25
0 20 0 28
0 21 2 16
0 22 0 32
0 23 2 17
0 24 0 25
0 25 0 32
0 26 0 33
0 27 0 32
0 28 2 34
0 29 1 34
0 30 0 39
0 31 0 40
